46
75
60	2
59	10
58	8
57	3
56	8
55	9
54	12
53	11
52	11
51	7
50	7
49	13
48	9
47	11
46	9
45	4
44	5
43	14
42	13
41	11
40	5
39	8
38	7
37	11
36	10
35	5
34	8
33	9
32	9
31	4
30	11
29	13
28	8
27	11
26	7
25	11
24	9
23	7
22	13
21	4
20	11
19	8
18	5
17	7
16	10
15	12
